objective value:                                    0
lambda[1,17]*                                       6 	(obj:0)
lambda[0,19]*                                       2 	(obj:0)
lambda[1,19]*                                       2 	(obj:0)
lambda[0,22]*                                       1 	(obj:0)
lambda[0,24]*                                       5 	(obj:0)
lambda[0,25]*                                       2 	(obj:0)
lambda[1,25]*                                       2 	(obj:0)
